
Starting CP-SAT solver v9.15.6755
Parameters: random_seed: 2026072752 max_time_in_seconds: 2500 log_search_progress: true cp_model_presolve: true linearization_level: 2 num_search_workers: 4 cp_model_probing_level: 2 symmetry_level: 2

Initial satisfaction model '': (model_fingerprint: 0x9ad601d61f8f3ab6)
#Variables: 724 (608 primary variables)
  - 724 Booleans in [0,1]
#kBoolAnd: 110 (#enforced: 110) (#literals: 330)
#kBoolOr: 110 (#enforced: 110) (#literals: 220)
#kExactlyOne: 87 (#literals: 261)
#kLinear1: 32 (#enforced: 6)
#kLinear2: 336 (#enforced: 336) (#complex_domain: 110)
#kLinear3: 1'600 (#enforced: 6)
#kLinearN: 1'132 (#enforced: 243) (#terms: 9'111)

Starting presolve at 0.00s
  6.49e-04s  0.00e+00d  [DetectDominanceRelations] 
  8.68e-03s  0.00e+00d  [PresolveToFixPoint] #num_loops=3 #num_dual_strengthening=1 
  3.49e-05s  0.00e+00d  [ExtractEncodingFromLinear] #potential_supersets=82 
  2.99e-04s  0.00e+00d  [DetectDuplicateColumns] 
  9.78e-05s  0.00e+00d  [DetectDuplicateConstraints] #duplicates=5 
[Symmetry] Graph for symmetry has 4'869 nodes and 15'728 arcs.
[Symmetry] Symmetry computation done. time: 0.00125873 dtime: 0.00181302
[SAT presolve] num removable Booleans: 220 / 626
[SAT presolve] num trivial clauses: 0
[SAT presolve] [0s] clauses:2'734 literals:7'430 vars:506 one_side_vars:66 simple_definition:1 singleton_clauses:0
[SAT presolve] [0.000217199s] clauses:2'733 literals:7'423 vars:506 one_side_vars:66 simple_definition:1 singleton_clauses:0
[SAT presolve] [0.000675921s] clauses:2'254 literals:6'619 vars:380 one_side_vars:73 simple_definition:65 singleton_clauses:0
  1.15e-04s  0.00e+00d  [DetectDuplicateConstraintsWithDifferentEnforcements] #without_enforcements=2 
  5.44e-03s  2.24e-03d  [Probe] #probed=1'304 #fixed_bools=12 #equiv=8 #new_binary_clauses=961 
  4.70e-04s  2.69e-04d  [MaxClique] Merged 589 constraints with 1'292 literals into 518 constraints with 1'175 literals
  8.40e-04s  0.00e+00d  [DetectDominanceRelations] 
  3.09e-03s  0.00e+00d  [PresolveToFixPoint] #num_loops=1 #num_dual_strengthening=1 
  1.19e-03s  0.00e+00d  [ProcessAtMostOneAndLinear] 
  1.02e-04s  0.00e+00d  [DetectDuplicateConstraints] #duplicates=6 
  8.88e-05s  0.00e+00d  [DetectDuplicateConstraintsWithDifferentEnforcements] 
  3.45e-03s  1.06e-04d  [DetectDominatedLinearConstraints] #relevant_constraints=836 #num_inclusions=517 #num_redundant=7 
  1.21e-04s  0.00e+00d  [DetectDifferentVariables] 
  7.53e-04s  8.54e-05d  [ProcessSetPPC] #relevant_constraints=3'009 #num_inclusions=100 
  2.60e-04s  3.34e-05d  [TransformClausesToExactlyOne] #num_amos=515 #num_clauses=1'671 #num_checked=1'671 
  5.24e-05s  0.00e+00d  [DetectEncodedComplexDomains] 
  3.48e-05s  1.00e-07d  [FindAlmostIdenticalLinearConstraints] #num_tested_pairs=1 
  9.15e-04s  1.42e-03d  [FindBigAtMostOneAndLinearOverlap] 
  1.46e-03s  1.22e-03d  [FindBigVerticalLinearOverlap] #blocks=3 #saved_nz=126 
  3.73e-04s  6.37e-04d  [FindBigHorizontalLinearOverlap] #linears=467 
  3.20e-04s  2.70e-05d  [MergeClauses] #num_collisions=22 #num_merges=22 #num_saved_literals=110 
  8.24e-04s  0.00e+00d  [DetectDominanceRelations] 
  3.16e-03s  0.00e+00d  [PresolveToFixPoint] #num_loops=2 #num_dual_strengthening=1 
  8.12e-04s  0.00e+00d  [DetectDominanceRelations] 
  2.95e-03s  0.00e+00d  [PresolveToFixPoint] #num_loops=1 #num_dual_strengthening=1 
  2.16e-04s  0.00e+00d  [DetectDuplicateColumns] 
  9.09e-05s  0.00e+00d  [DetectDuplicateConstraints] 
[Symmetry] Graph for symmetry has 4'360 nodes and 13'736 arcs.
[Symmetry] Symmetry computation done. time: 0.00101379 dtime: 0.00142578
[SAT presolve] num removable Booleans: 93 / 488
[SAT presolve] num trivial clauses: 0
[SAT presolve] [0s] clauses:2'178 literals:6'447 vars:461 one_side_vars:149 simple_definition:75 singleton_clauses:0
[SAT presolve] [0.000224843s] clauses:2'175 literals:6'256 vars:461 one_side_vars:189 simple_definition:68 singleton_clauses:0
[SAT presolve] [0.000298632s] clauses:2'169 literals:6'252 vars:458 one_side_vars:189 simple_definition:62 singleton_clauses:0
  2.14e-04s  0.00e+00d  [DetectDuplicateConstraintsWithDifferentEnforcements] #without_enforcements=1 
  5.96e-03s  2.03e-03d  [Probe] #probed=1'310 #new_binary_clauses=618 
  5.16e-04s  3.31e-04d  [MaxClique] Merged 521 constraints with 1'124 literals into 509 constraints with 1'115 literals
  9.48e-04s  0.00e+00d  [DetectDominanceRelations] 
  3.39e-03s  0.00e+00d  [PresolveToFixPoint] #num_loops=1 #num_dual_strengthening=1 
  1.24e-03s  0.00e+00d  [ProcessAtMostOneAndLinear] 
  1.56e-04s  0.00e+00d  [DetectDuplicateConstraints] 
  1.17e-04s  0.00e+00d  [DetectDuplicateConstraintsWithDifferentEnforcements] #without_enforcements=1 
  1.91e-03s  7.44e-05d  [DetectDominatedLinearConstraints] #relevant_constraints=821 #num_inclusions=391 
  1.55e-04s  0.00e+00d  [DetectDifferentVariables] 
  7.90e-04s  7.60e-05d  [ProcessSetPPC] #relevant_constraints=3'069 #num_inclusions=112 
  3.03e-04s  3.34e-05d  [TransformClausesToExactlyOne] #num_amos=508 #num_clauses=1'688 #num_checked=1'688 
  1.48e-04s  0.00e+00d  [DetectEncodedComplexDomains] 
  4.09e-05s  0.00e+00d  [FindAlmostIdenticalLinearConstraints] 
  8.66e-04s  1.24e-03d  [FindBigAtMostOneAndLinearOverlap] 
  1.31e-03s  1.11e-03d  [FindBigVerticalLinearOverlap] 
  3.87e-04s  6.37e-04d  [FindBigHorizontalLinearOverlap] #linears=467 
  3.35e-04s  2.64e-05d  [MergeClauses] #num_collisions=76 #num_merges=76 #num_saved_literals=220 
  8.58e-04s  0.00e+00d  [DetectDominanceRelations] 
  3.14e-03s  0.00e+00d  [PresolveToFixPoint] #num_loops=1 #num_dual_strengthening=1 
  8.72e-04s  0.00e+00d  [DetectDominanceRelations] 
  3.14e-03s  0.00e+00d  [PresolveToFixPoint] #num_loops=1 #num_dual_strengthening=1 
  1.48e-04s  0.00e+00d  [DetectDuplicateColumns] 
  1.09e-04s  0.00e+00d  [DetectDuplicateConstraints] 
[Symmetry] Graph for symmetry has 4'294 nodes and 13'401 arcs.
[Symmetry] Symmetry computation done. time: 0.00100059 dtime: 0.00130763
[SAT presolve] num removable Booleans: 90 / 485
[SAT presolve] num trivial clauses: 0
[SAT presolve] [0s] clauses:2'159 literals:6'233 vars:458 one_side_vars:189 simple_definition:63 singleton_clauses:0
[SAT presolve] [0.000219363s] clauses:2'159 literals:6'233 vars:458 one_side_vars:189 simple_definition:63 singleton_clauses:0
[SAT presolve] [0.000285457s] clauses:2'159 literals:6'233 vars:458 one_side_vars:189 simple_definition:63 singleton_clauses:0
  1.64e-04s  0.00e+00d  [DetectDuplicateConstraintsWithDifferentEnforcements] 
  5.72e-03s  2.03e-03d  [Probe] #probed=1'310 #new_binary_clauses=622 
  4.38e-04s  3.29e-04d  [MaxClique] Merged 508 constraints with 1'107 literals into 507 constraints with 1'106 literals
  8.63e-04s  0.00e+00d  [DetectDominanceRelations] 
  3.13e-03s  0.00e+00d  [PresolveToFixPoint] #num_loops=1 #num_dual_strengthening=1 
  1.15e-03s  0.00e+00d  [ProcessAtMostOneAndLinear] 
  1.08e-04s  0.00e+00d  [DetectDuplicateConstraints] 
  1.02e-04s  0.00e+00d  [DetectDuplicateConstraintsWithDifferentEnforcements] 
  1.90e-03s  7.44e-05d  [DetectDominatedLinearConstraints] #relevant_constraints=821 #num_inclusions=391 
  1.29e-04s  0.00e+00d  [DetectDifferentVariables] 
  7.42e-04s  7.61e-05d  [ProcessSetPPC] #relevant_constraints=3'073 #num_inclusions=110 
  2.94e-04s  3.34e-05d  [TransformClausesToExactlyOne] #num_amos=507 #num_clauses=1'694 #num_checked=1'694 
  1.45e-04s  0.00e+00d  [DetectEncodedComplexDomains] 
  4.58e-05s  0.00e+00d  [FindAlmostIdenticalLinearConstraints] 
  8.36e-04s  1.24e-03d  [FindBigAtMostOneAndLinearOverlap] 
  1.39e-03s  1.11e-03d  [FindBigVerticalLinearOverlap] #blocks=2 #saved_nz=74 
  3.60e-04s  5.72e-04d  [FindBigHorizontalLinearOverlap] #linears=463 
  3.29e-04s  2.65e-05d  [MergeClauses] #num_collisions=79 #num_merges=79 #num_saved_literals=226 
  8.81e-04s  0.00e+00d  [DetectDominanceRelations] 
  3.23e-03s  0.00e+00d  [PresolveToFixPoint] #num_loops=2 #num_dual_strengthening=1 
  2.95e-05s  0.00e+00d  [MergeNoOverlap] 
  3.12e-05s  0.00e+00d  [MergeNoOverlap2D] 

Presolve summary:
  - 38 affine relations were detected.
  - rule 'TODO dual: only one blocking constraint?' was applied 843 times.
  - rule 'TODO dual: tighten at most one' was applied 8 times.
  - rule 'TODO linear inclusion: superset is equality' was applied 368 times.
  - rule 'affine: new relation' was applied 38 times.
  - rule 'at_most_one: removed literals' was applied 61 times.
  - rule 'at_most_one: size one' was applied 60 times.
  - rule 'at_most_one: transformed into max clique' was applied 3 times.
  - rule 'bool_or: implications' was applied 76 times.
  - rule 'bool_or: only one literal' was applied 12 times.
  - rule 'bool_or: removed enforcement literal' was applied 597 times.
  - rule 'deductions: 888 stored' was applied 1 time.
  - rule 'duplicate: merged rhs of linear constraint' was applied 10 times.
  - rule 'duplicate: removed constraint' was applied 11 times.
  - rule 'duplicate: removed enforced constraint' was applied 3 times.
  - rule 'enforcement: false literal' was applied 34 times.
  - rule 'enforcement: true literal' was applied 8 times.
  - rule 'exactly_one: removed literals' was applied 33 times.
  - rule 'exactly_one: satisfied' was applied 3 times.
  - rule 'exactly_one: singleton' was applied 3 times.
  - rule 'exactly_one: size two' was applied 30 times.
  - rule 'exactly_one: x and not(x)' was applied 6 times.
  - rule 'incompatible linear: add implication' was applied 126 times.
  - rule 'linear + amo: empty after processing' was applied 6 times.
  - rule 'linear + amo: extracted enforcement literal' was applied 56 times.
  - rule 'linear inclusion: redundant containing constraint' was applied 3 times.
  - rule 'linear inclusion: redundant included constraint' was applied 3 times.
  - rule 'linear inclusion: sparsify superset' was applied 1 time.
  - rule 'linear matrix: common vertical rectangle' was applied 5 times.
  - rule 'linear1: x in domain' was applied 26 times.
  - rule 'linear2: convert ax + by != cte to clauses' was applied 269 times.
  - rule 'linear2: convert implied ax + by == cte to clauses' was applied 124 times.
  - rule 'linear2: implied ax + by = cte has only one solution' was applied 11 times.
  - rule 'linear: always true' was applied 410 times.
  - rule 'linear: empty' was applied 1 time.
  - rule 'linear: extracted at most one (max)' was applied 1 time.
  - rule 'linear: fixed or dup variables' was applied 879 times.
  - rule 'linear: negative clause' was applied 1'295 times.
  - rule 'linear: negative reified and' was applied 78 times.
  - rule 'linear: never in domain' was applied 6 times.
  - rule 'linear: positive at most one' was applied 30 times.
  - rule 'linear: reduced variable domains' was applied 6 times.
  - rule 'linear: remapped using affine relations' was applied 22 times.
  - rule 'new_bool: integer encoding' was applied 15 times.
  - rule 'presolve: 78 unused variables removed.' was applied 1 time.
  - rule 'presolve: iteration' was applied 3 times.
  - rule 'probing: bool_or reduced to implication' was applied 28 times.
  - rule 'probing: simplified clauses' was applied 7 times.
  - rule 'setppc: bool_or in at_most_one' was applied 7 times.
  - rule 'setppc: removed dominated constraints' was applied 86 times.
  - rule 'variables: add encoding constraint' was applied 15 times.

Presolved satisfaction model '': (model_fingerprint: 0xb57e2777d7544aa8)
#Variables: 496 (431 primary variables)
  - 491 Booleans in [0,1]
  - 5 in [0,2]
#kAtMostOne: 44 (#literals: 180)
#kBoolAnd: 274 (#enforced: 274) (#literals: 743)
#kBoolAndClauses: 79 (#enforced: 79 #multi: 79) (#literals: 384)
#kBoolOr: 1'552 (#literals: 4'741)
#kExactlyOne: 51 (#literals: 191)
#kLinear1: 30 (#enforced: 30)
#kLinearN: 817 (#enforced: 122) (#terms: 5'765)
[Symmetry] Graph for symmetry has 4'088 nodes and 13'400 arcs.
[Symmetry] Symmetry computation done. time: 0.000796748 dtime: 0.00129704

Preloading model.
#Model   0.10s var:496/496 constraints:2847/2847

Starting search at 0.10s with 4 workers.
3 full problem subsolvers: [default_lp, max_lp, no_lp]
1 first solution subsolver: [fj]
2 interleaved subsolvers: [feasibility_pump, rins/rens]
2 helper subsolvers: [neighborhood_helper, synchronization_agent]

#Model  29.26s var:495/496 constraints:2845/2847
#Model  66.95s var:494/496 constraints:2843/2847
#Model 226.89s var:493/496 constraints:2829/2847
#Model 1168.40s var:492/496 constraints:2814/2847

Task timing                   n [     min,      max]      avg      dev     time         n [     min,      max]      avg      dev    dtime
        'default_lp':         1 [  41.66m,   41.66m]   41.66m   0.00ns   41.66m         2 [  2.15ms,   39.43m]   19.71m   19.71m   39.43m
  'feasibility_pump':     12396 [ 34.33us, 133.86ms]   1.55ms   1.23ms   19.25s     12393 [285.03us, 116.98ms] 296.30us   1.05ms    3.67s
                'fj':      8891 [ 78.89ms, 230.18ms] 139.42ms   9.86ms   20.66m      8891 [ 33.37ms, 100.13ms] 100.01ms 706.97us   14.82m
            'max_lp':         1 [  41.66m,   41.66m]   41.66m   0.00ns   41.66m         2 [ 78.10ms,   51.00m]   25.50m   25.50m   51.01m
             'no_lp':         1 [  41.66m,   41.66m]   41.66m   0.00ns   41.66m         2 [  1.92ms,    1.36h]   40.83m   40.83m    1.36h
         'rins/rens':     11661 [501.00ns, 273.94ms] 106.30ms  40.81ms   20.66m     11656 [101.25us, 100.36ms]  67.23ms  38.10ms   13.06m

Search stats     Bools   Conflicts    Branches  Restarts  BacktrackToRoot   Backtrack     BoolPropag  IntegerPropag
  'default_lp':    491     223'550   7'564'016     1'390        1'277'403   1'792'251     85'826'885    101'771'258
      'max_lp':    491     173'019   9'465'296       846        1'558'089   2'060'779    108'081'285    133'435'227
       'no_lp':    491  20'493'626  28'629'842    69'079          626'389  21'032'882  1'749'042'589    451'506'050

SAT formula      Fixed  Equiv  Total  VarLeft  BinaryClauses  PermanentClauses  TemporaryClauses
  'default_lp':      4      2    491      485          2'618            55'236             8'834
      'max_lp':      4      2    491      485          2'618            55'544             7'229
       'no_lp':      4      2    491      485          2'618           152'009            12'214

SAT stats        ClassicMinim   LitRemoved  LitRemovedBinary   LitLearned  LitForgotten   Subsumed
  'default_lp':       194'745    2'477'445         1'584'250    8'240'080     5'832'276     68'672
      'max_lp':       147'959    2'188'176         1'063'203    5'248'633     3'825'871     39'353
       'no_lp':    18'277'115  325'511'663       162'908'060  525'256'925   427'758'522  5'009'272

Vivification       Clauses  Decisions  LitTrue  Subsumed  LitRemoved  DecisionReused  Conflicts
  'default_lp':  1'325'491  7'010'695        4    11'247     109'142         303'911        652
      'max_lp':  1'572'645  8'908'693        0    12'458     123'158         326'507        630
       'no_lp':    486'203  3'852'082        0    25'179     303'693         107'061        731

Clause deletion    at_true  l_and_not(l)  to_binary  sub_conflict  sub_extra  sub_decisions  sub_eager  sub_vivify  sub_probing  sub_inpro  blocked  eliminated   forgotten    promoted   conflicts
    'default_lp':      182             0          2        67'699        626          1'703        973      11'247          128      3'017        0           0     139'479     446'994     223'550
        'max_lp':      169             0          3        38'907        609          1'005        446      12'458          160      3'654        0           0     117'343     392'254     173'019
         'no_lp':      282             0          3     4'923'270     44'433        196'574     86'002      25'179          163     66'334        0           0  14'994'505  47'701'687  20'493'626

Lp stats         Component  Iterations  AddedCuts  OPTIMAL  DUAL_F.  DUAL_U.
  'default_lp':          1  28'095'253     94'932  341'217        1  186'948
      'max_lp':          1  14'558'853    105'868   50'013  168'506   36'974

Lp dimension        Final dimension of first component
  'default_lp':   380 rows, 346 columns, 14766 entries
      'max_lp':  1210 rows, 496 columns, 25135 entries

Lp debug         CutPropag  CutEqPropag   Adjust  Overflow        Bad  BadScaling
  'default_lp':          0          234  186'941         0  2'666'076           0
      'max_lp':          0          521   36'966         0  3'012'710           0

Lp pool          Constraints  Updates  Simplif  Merged  Shortened  Split  Strengthened        Cuts/Call
  'default_lp':       10'700   18'498        0       0        705      0             4   94'932/128'697
      'max_lp':       13'055   33'765        0       6        271      0         2'776  105'868/162'117

Lp Cut            default_lp  max_lp
          CG_FF:       1'453     151
           CG_K:         868      18
          CG_KL:         793       8
           CG_R:       1'558      79
          CG_RB:          29       8
         CG_RBP:          16       1
         Clique:           -     255
             IB:         123       8
       MIR_1_FF:         902   1'077
        MIR_1_K:         232      28
       MIR_1_KL:         688      33
        MIR_1_R:         945     474
       MIR_1_RB:           1       6
      MIR_1_RBP:           2       2
      MIR_1_RLT:           -  13'728
       MIR_2_FF:         791   1'236
        MIR_2_K:         185     239
       MIR_2_KL:         480     104
        MIR_2_R:       1'498   1'131
       MIR_2_RB:           2      14
      MIR_2_RBP:           5      13
       MIR_3_FF:         422     318
        MIR_3_K:          99      52
       MIR_3_KL:         167      21
        MIR_3_R:         922     402
       MIR_3_RB:           5      10
      MIR_3_RBP:           8       6
       MIR_4_FF:         161      95
        MIR_4_K:          50      19
       MIR_4_KL:          72       7
        MIR_4_R:         662     398
       MIR_4_RB:           7      14
      MIR_4_RBP:           8       6
       MIR_5_FF:          39      30
        MIR_5_K:           9       9
       MIR_5_KL:           4       -
        MIR_5_R:         418     355
       MIR_5_RB:           4       5
      MIR_5_RBP:           4       1
       MIR_6_FF:          19      17
        MIR_6_K:           6       4
       MIR_6_KL:           2       1
        MIR_6_R:         304     288
       MIR_6_RB:           3       5
      MIR_6_RBP:           6       3
   ZERO_HALF_FF:         406     839
    ZERO_HALF_K:         116      15
   ZERO_HALF_KL:         161       5
    ZERO_HALF_R:      80'273  84'250
   ZERO_HALF_RB:           1       4
  ZERO_HALF_RBP:           3      76

LNS stats       Improv/Calls  Closed  Difficulty  TimeLimit
  'rins/rens':   11656/11656     50%    7.47e-01       0.10

LS stats                                    Batches  Restarts/Perturbs    LinMoves   GenMoves  CompoundMoves  Bactracks  WeightUpdates  ScoreComputed
                             'fj_restart':      470                132  15'426'094          0              0          0     11'737'371     20'930'535
                    'fj_restart_compound':      642                138           0  7'252'814        368'076  3'442'149         18'524    116'224'759
                'fj_restart_compound_obj':      623                101           0  6'937'115        260'892  3'337'920         22'569    112'870'427
            'fj_restart_compound_perturb':      325                114           0  3'563'266        258'637  1'652'137          7'795     58'595'334
        'fj_restart_compound_perturb_obj':      713                130           0  8'072'811        347'449  3'862'456         22'616    128'644'256
                       'fj_restart_decay':      342                113  11'239'459          0              0          0        472'761      5'872'941
              'fj_restart_decay_compound':      569                119           0  7'030'700      1'172'521  2'928'843          7'501    104'529'431
          'fj_restart_decay_compound_obj':      773                123           0  9'750'347      1'629'412  4'060'196         10'243    142'616'804
      'fj_restart_decay_compound_perturb':      301                125           0  3'433'294        579'328  1'426'694          4'103     54'883'579
  'fj_restart_decay_compound_perturb_obj':      514                126           0  6'254'753      1'047'109  2'603'528          6'845     94'439'320
                   'fj_restart_decay_obj':      961                116  31'656'871          0              0          0      1'330'149     16'479'186
               'fj_restart_decay_perturb':      357                119  11'726'585          0              0          0        493'489      6'116'539
           'fj_restart_decay_perturb_obj':      554                137  18'216'914          0              0          0        765'719      9'505'106
                         'fj_restart_obj':      668                132  21'198'393          0              0          0     17'574'857     28'875'529
                     'fj_restart_perturb':      330                111  10'605'468          0              0          0      8'327'070     13'923'787
                 'fj_restart_perturb_obj':      749                119  23'502'609          0              0          0     19'748'487     32'125'671

Solution repositories    Added  Queried  Synchro
    'alternative_path':      0        0        0
      'best_solutions':      0        0        0
   'fj solution hints':  1'947        0    1'947
        'lp solutions':  2'212   11'660    2'203
                'pump':      0        0

Improving bounds shared    Num  Sym
            'default_lp':    4    0

Clauses shared    #Exported  #Imported  #BinaryRead  #BinaryTotal
   'default_lp':      2'613     63'808          278           278
       'max_lp':      3'614     62'729          278           278
        'no_lp':     62'584      5'965          278           278

LRAT_status: NA
CpSolverResponse summary:
status: UNKNOWN
objective: NA
best_bound: NA
integers: 358
booleans: 491
conflicts: 223550
branches: 7564016
propagations: 85826885
integer_propagations: 101771258
restarts: 1390
lp_iterations: 28095253
walltime: 2500.04
usertime: 2500.04
deterministic_time: 12002.3
gap_integral: 0

{
  "board_size": 22,
  "parity_proved": 0,
  "target": 34,
  "child_id": 652,
  "child_count": 2640,
  "partition": "unknown_pair_x_diag_plus_twos_x_diag_minus_twos",
  "build_seconds": 0.07950592041015625,
  "workers": 4,
  "requested_seed": 2026072752,
  "effective_seed": 2026072752,
  "main_diagonal_pair": [
    2,
    3
  ],
  "pair_index": 40,
  "diag_plus_twos": 16,
  "diag_minus_twos": 16,
  "pair_excess": 0,
  "residual_certificate_slack": 112,
  "analytic_minimum_line_defect": 24,
  "analytic_defect_details": {
    "row_costs": {
      "12": 6,
      "13": 3,
      "14": 0,
      "15": 0,
      "16": 0,
      "17": 0
    },
    "column_costs": {
      "12": 6,
      "13": 3,
      "14": 0,
      "15": 0,
      "16": 0,
      "17": 0
    },
    "plus_cost": 24,
    "minus_cost": 0,
    "row_column_minimum": 0
  },
  "maximal_line_constraints": 2455,
  "analytic_infeasible": false,
  "allowed_points": 242,
  "status": "UNKNOWN",
  "proof_method": "cp_sat_all_lines_with_certificate_profile_cuts",
  "elapsed_seconds": 2500.037087202072,
  "branches": 7564016,
  "conflicts": 223550
}
